NAME : n40w20.003.478.tour
COMMENT : Length = 478
COMMENT : Found by LKH [Keld Helsgaun] Tue May  2 05:18:26 2017
TYPE : TOUR
DIMENSION : 41
TOUR_SECTION
1
13
34
7
2
3
25
14
36
39
38
17
11
6
27
24
4
15
18
22
26
28
9
12
32
23
30
10
33
16
35
21
20
29
8
40
37
5
41
31
19
-1
EOF
